% demand
num_movements = 29;
loading_factor = [1750, 800, 1200, 2000, 1250, 1200, 2000, 850, 1900, 1300, 2000, 1750, 1850, 1950, 1150, 1200, 850, 1950, 1750, 1700, 1600, 1700, 1200, 1300, 850, 800, 1850, 850, 1150];
pickup_time = [0, 0, 0, 1, 1, 3, 3, 3, 4, 4, 4, 5, 7, 7, 7, 7, 7, 8, 8, 8, 8, 11, 11, 11, 11, 12, 13, 13, 13];
delivery_time = [4, 3, 4, 3, 3, 4, 4, 7, 7, 5, 7, 7, 8, 8, 8, 8, 8, 12, 11, 10, 10, 14, 12, 12, 14, 13, 14, 14, 14];

% transporter definition
total_capacity = 7000;
num_decks = 3;
capacity = [3000, 1000, 3000];

% ways out of decks
num_ways_out = 1;
paths_out = array3d(decks, ways_out, decks, [
% ways out of deck d1
2, 3, 0, 

% ways out of deck d2
3, 0, 0, 

% ways out of deck d3
0, 0, 0,	

]);

